p cnf 46 130
a 45 0
e 1 2 3 4 5 6 7 8 9 10 11 12 13 14 15 16 17 18 19 20 21 22 23 24 25 26 27 28 29 30 31 32 33 34 35 36 37 38 39 40 41 42 43 44 46 0
4 2 0
4 3 0
-2 -3 -4 0
5 1 0
5 4 0
-1 -4 -5 0
-7 3 0
-7 6 0
-3 -6 7 0
7 -8 -9 0
-7 8 -9 0
7 8 9 0
-7 -8 9 0
-5 -9 -10 0
5 9 -10 0
-5 9 10 0
5 -9 10 0
13 -11 0
13 12 0
11 -12 -13 0
-14 -13 0
-14 -3 0
13 3 14 0
15 14 0
15 9 0
-14 -9 -15 0
-10 -15 -16 0
10 15 -16 0
-10 15 16 0
10 -15 16 0
-17 -13 0
-17 -3 0
13 3 17 0
18 -3 -19 0
-18 3 -19 0
18 3 19 0
-18 -3 19 0
-20 -17 0
-20 -19 0
17 19 20 0
-21 -16 0
-21 20 0
16 -20 21 0
22 7 0
22 6 0
-7 -6 -22 0
-11 9 -23 0
11 -9 -23 0
-11 -9 23 0
11 9 23 0
-24 -22 0
-24 23 0
22 -23 24 0
6 -7 -25 0
-6 7 -25 0
6 7 25 0
-6 -7 25 0
27 -26 0
27 -2 0
26 2 -27 0
28 27 0
28 3 0
-27 -3 -28 0
-29 -25 0
-29 28 0
25 -28 29 0
30 -24 0
30 -29 0
24 29 -30 0
-31 -21 0
-31 30 0
21 -30 31 0
-32 2 0
-32 28 0
-2 -28 32 0
33 -12 0
33 -7 0
12 7 -33 0
-35 6 0
-35 34 0
-6 -34 35 0
36 33 0
36 35 0
-33 -35 -36 0
36 22 -37 0
-36 -22 -37 0
36 -22 37 0
-36 22 37 0
1 2 -38 0
-1 -2 -38 0
1 -2 38 0
-1 2 38 0
-39 -12 0
-39 7 0
12 -7 39 0
40 -8 0
40 -39 0
8 39 -40 0
41 38 0
41 40 0
-38 -40 -41 0
42 -37 0
42 -41 0
37 41 -42 0
-43 -32 0
-43 42 0
32 -42 43 0
44 -6 0
44 2 0
6 -2 -44 0
-43 44 -45 0
43 -44 -45 0
-43 -44 45 0
43 44 45 0
46 -31 0
46 45 0
31 -45 -46 0
6 -39 28 23 -3 -14 0
-32 -13 -7 -8 11 -46 0
46 -4 31 -14 -12 -32 0
-41 -22 26 -5 0
-4 -28 -22 25 -12 0
29 24 26 -22 -31 -45 0
20 -46 -35 30 8 -11 -28 0
-21 -31 30 -45 0
23 -46 41 -10 -24 0
41 42 37 43 27 -35 33 0
-36 40 13 -41 44 18 -33 0
-11 46 15 0
46 0
